qbf_easy_train/easy_2672_SAT.qdimacs
p cnf 28 74
a 8 10 3 0
e 1 2 4 5 6 7 9 11 12 13 14 15 16 17 18 19 20 21 22 23 24 25 26 27 28 0
-4 -3 0
-4 1 0
3 -1 4 0
5 -2 0
5 -4 0
2 4 -5 0
1 -5 -6 0
-1 5 -6 0
1 5 6 0
-1 -5 6 0
-2 1 -7 0
2 -1 -7 0
-2 -1 7 0
2 1 7 0
8 -9 -10 0
-8 9 -10 0
8 9 10 0
-8 -9 10 0
12 -10 0
12 -11 0
10 11 -12 0
-13 7 0
-13 12 0
-7 -12 13 0
-14 -10 0
-14 11 0
10 -11 14 0
-15 13 0
-15 14 0
-13 -14 15 0
-16 -6 0
-16 15 0
6 -15 16 0
-17 -8 0
-17 -2 0
8 2 17 0
-19 12 0
-19 18 0
-12 -18 19 0
-17 19 -20 0
17 -19 -20 0
-17 -19 20 0
17 19 20 0
21 -16 0
21 20 0
16 -20 -21 0
-22 -10 -23 0
22 10 -23 0
-22 10 23 0
22 -10 23 0
-24 -8 0
-24 -5 0
8 5 24 0
-23 24 -25 0
23 -24 -25 0
-23 -24 25 0
23 24 25 0
-26 -18 0
-26 -4 0
18 4 26 0
-27 -25 0
-27 -26 0
25 26 27 0
28 -21 0
28 -27 0
21 27 -28 0
-17 21 -7 -18 20 26 10 -16 0
11 1 28 0
-27 -1 14 23 18 13 2 -24 0
-25 17 28 -12 -27 0
14 2 0
25 -3 -11 4 0
-12 22 -24 -26 0
28 0
