sat_easy_train/easy_2672_SAT.dimacs
p cnf 137 461
-4 2 0
-4 -3 0
-2 3 4 0
-5 1 0
-5 -4 0
-1 4 5 0
7 -5 0
7 -6 0
5 6 -7 0
-1 -9 0
1 -9 0
10 -8 0
10 9 0
8 -9 -10 0
12 11 0
12 4 0
-11 -4 -12 0
-12 13 -14 0
12 -13 -14 0
-12 -13 14 0
12 13 14 0
-15 10 0
-15 -14 0
-10 14 15 0
15 16 -17 0
-15 -16 -17 0
15 -16 17 0
-15 16 17 0
18 -2 0
18 12 0
2 -12 -18 0
12 9 -19 0
-12 -9 -19 0
12 -9 19 0
-12 9 19 0
-18 -19 -20 0
18 19 -20 0
-18 19 20 0
18 -19 20 0
-23 -22 0
-23 3 0
22 -3 23 0
24 21 0
24 -23 0
-21 23 -24 0
23 -8 -25 0
-23 8 -25 0
23 8 25 0
-23 -8 25 0
26 -24 0
26 25 0
24 -25 -26 0
27 -26 0
27 4 0
26 -4 -27 0
28 20 0
28 -27 0
-20 27 -28 0
17 28 -29 0
-17 -28 -29 0
17 -28 29 0
-17 28 29 0
-31 -30 0
-31 -11 0
30 11 31 0
-6 31 -32 0
6 -31 -32 0
-6 -31 32 0
6 31 32 0
33 13 0
33 -32 0
-13 32 -33 0
32 -2 -34 0
-32 2 -34 0
32 2 34 0
-32 -2 34 0
-33 -34 -35 0
33 34 -35 0
-33 34 35 0
33 -34 35 0
-36 -29 0
-36 -35 0
29 35 36 0
-37 31 0
-37 23 0
-31 -23 37 0
37 -38 -39 0
-37 38 -39 0
37 38 39 0
-37 -38 39 0
40 36 0
40 39 0
-36 -39 -40 0
41 16 0
41 -14 0
-16 14 -41 0
43 -42 0
43 33 0
42 -33 -43 0
-44 5 0
-44 -43 0
-5 43 44 0
45 41 0
45 44 0
-41 -44 -45 0
-46 -40 0
-46 -45 0
40 45 46 0
47 -31 0
47 30 0
31 -30 -47 0
-47 -11 -48 0
47 11 -48 0
-47 11 48 0
47 -11 48 0
33 -16 -49 0
-33 16 -49 0
33 16 49 0
-33 -16 49 0
-50 -48 0
-50 49 0
48 -49 50 0
12 24 -51 0
-12 -24 -51 0
12 -24 51 0
-12 24 51 0
-52 51 0
-52 -48 0
-51 48 52 0
53 -50 0
53 52 0
50 -52 -53 0
38 37 -54 0
-38 -37 -54 0
38 -37 54 0
-38 37 54 0
-51 -56 0
51 -56 0
-57 55 0
-57 -56 0
-55 56 57 0
-58 -37 0
-58 37 0
-59 57 0
-59 -58 0
-57 58 59 0
-60 -54 0
-60 -59 0
54 59 60 0
-51 -6 -61 0
51 6 -61 0
-51 6 61 0
51 -6 61 0
-62 24 0
-62 20 0
-24 -20 62 0
-63 55 0
-63 32 0
-55 -32 63 0
-64 62 0
-64 -63 0
-62 63 64 0
-64 26 -65 0
64 -26 -65 0
-64 -26 65 0
64 26 65 0
65 20 -66 0
-65 -20 -66 0
65 -20 66 0
-65 20 66 0
-67 -61 0
-67 66 0
61 -66 67 0
68 47 0
68 -48 0
-47 48 -68 0
69 48 0
69 68 0
-48 -68 -69 0
-70 69 0
-70 -51 0
-69 51 70 0
-71 3 0
-71 70 0
-3 -70 71 0
67 71 -72 0
-67 -71 -72 0
67 -71 72 0
-67 71 72 0
-73 -60 0
-73 72 0
60 -72 73 0
-53 73 -74 0
53 -73 -74 0
-53 -73 74 0
53 73 74 0
22 -32 -75 0
-22 32 -75 0
22 32 75 0
-22 -32 75 0
-75 -51 -76 0
75 51 -76 0
-75 51 76 0
75 -51 76 0
77 -32 0
77 15 0
32 -15 -77 0
-78 -76 0
-78 77 0
76 -77 78 0
-34 5 -79 0
34 -5 -79 0
-34 -5 79 0
34 5 79 0
80 -13 0
80 23 0
13 -23 -80 0
81 16 0
81 -3 0
-16 3 -81 0
25 -81 -82 0
-25 81 -82 0
25 81 82 0
-25 -81 82 0
-83 -80 0
-83 -82 0
80 82 83 0
-79 -83 -84 0
79 83 -84 0
-79 83 84 0
79 -83 84 0
85 -78 0
85 84 0
78 -84 -85 0
-86 -38 0
-86 -25 0
38 25 86 0
-87 -85 0
-87 86 0
85 -86 87 0
-74 87 -88 0
74 -87 -88 0
-74 -87 88 0
74 87 88 0
-89 46 0
-89 88 0
-46 -88 89 0
-62 -70 -90 0
62 70 -90 0
-62 70 90 0
62 -70 90 0
-30 -38 -91 0
30 38 -91 0
-30 38 91 0
30 -38 91 0
-91 -92 -93 0
91 92 -93 0
-91 92 93 0
91 -92 93 0
94 -12 0
94 34 0
12 -34 -94 0
-95 93 0
-95 -94 0
-93 94 95 0
-96 -47 0
-96 3 0
47 -3 96 0
68 96 -97 0
-68 -96 -97 0
68 -96 97 0
-68 96 97 0
98 -95 0
98 97 0
95 -97 -98 0
-90 98 -99 0
90 -98 -99 0
-90 -98 99 0
90 98 99 0
100 -89 0
100 -99 0
89 99 -100 0
7 100 -101 0
-7 -100 -101 0
7 -100 101 0
-7 100 101 0
102 -33 0
102 21 0
33 -21 -102 0
-103 102 0
-103 -34 0
-102 34 103 0
-104 48 0
-104 103 0
-48 -103 104 0
-31 -105 -106 0
31 105 -106 0
-31 105 106 0
31 -105 106 0
-107 2 0
-107 4 0
-2 -4 107 0
-108 106 0
-108 107 0
-106 -107 108 0
108 23 -109 0
-108 -23 -109 0
108 -23 109 0
-108 23 109 0
110 9 0
110 -1 0
-9 1 -110 0
109 110 -111 0
-109 -110 -111 0
109 -110 111 0
-109 110 111 0
112 104 0
112 -111 0
-104 111 -112 0
-47 -32 -113 0
47 32 -113 0
-47 32 113 0
47 -32 113 0
114 112 0
114 113 0
-112 -113 -114 0
-18 -107 -115 0
18 107 -115 0
-18 107 115 0
18 -107 115 0
116 37 0
116 -105 0
-37 105 -116 0
-30 116 -117 0
30 -116 -117 0
-30 -116 117 0
30 116 117 0
-118 115 0
-118 117 0
-115 -117 118 0
119 -114 0
119 -118 0
114 118 -119 0
-120 -96 0
-120 -38 0
96 38 120 0
121 -12 0
121 -120 0
12 120 -121 0
122 44 0
122 -6 0
-44 6 -122 0
-121 -122 -123 0
121 122 -123 0
-121 122 123 0
121 -122 123 0
-124 -119 0
-124 123 0
119 -123 124 0
103 19 -125 0
-103 -19 -125 0
103 -19 125 0
-103 19 125 0
126 80 0
126 41 0
-80 -41 -126 0
127 -106 0
127 -68 0
106 68 -127 0
-33 -96 -128 0
33 96 -128 0
-33 96 128 0
33 -96 128 0
-129 -127 0
-129 -128 0
127 128 129 0
-130 126 0
-130 129 0
-126 -129 130 0
5 56 -131 0
-5 -56 -131 0
5 -56 131 0
-5 56 131 0
8 -132 0
-8 -132 0
133 131 0
133 -132 0
-131 132 -133 0
134 130 0
134 133 0
-130 -133 -134 0
-135 125 0
-135 134 0
-125 -134 135 0
136 -124 0
136 -135 0
124 135 -136 0
137 -101 0
137 136 0
101 -136 -137 0
124 12 0
128 -1 0
-41 31 0
55 -48 -89 81 -105 -80 0
11 124 123 0
-109 3 131 -28 0
56 53 -14 38 -111 -86 0
-2 -39 -132 -87 118 35 0
-54 33 79 -9 135 0
23 -31 6 36 0
-53 135 97 40 0
73 56 78 66 0
47 -100 -33 -81 -9 137 0
133 97 34 0
19 -45 -64 -135 -65 0
-70 -66 -95 -10 0
18 50 0
-33 1 134 53 -117 0
-73 -41 0
107 -11 -47 -129 -45 0
96 67 -76 40 85 116 0
-69 79 71 85 -100 0
126 38 0
89 112 -23 17 0
-133 2 118 0
122 132 -99 0
-125 -114 134 -96 -76 0
51 -6 -23 10 62 0
77 81 34 127 109 0
-52 -14 -45 -66 -44 -121 0
76 12 102 0
-73 -81 65 -5 0
74 127 136 -3 0
-103 -21 0
129 -60 0
-91 -131 -133 -70 -101 -42 0
114 63 87 0
-7 -96 117 0
-90 47 109 124 0
7 -35 -45 31 130 125 0
-91 -119 -16 -12 114 108 0
-51 -72 -58 -103 92 0
-31 41 -94 -115 0
69 79 -137 0
44 -37 -135 -30 0
-58 90 0
38 -134 0
21 94 110 -133 52 -125 0
77 135 -128 -71 -117 0
-131 71 123 0
125 28 -19 62 0
-100 49 0
-20 -108 0
-66 33 132 -104 0
-34 -58 -29 103 -63 0
-85 -24 125 -60 55 0
75 85 128 23 43 0
-82 -136 -54 0
-55 -78 -121 -3 33 0
5 -19 0
137 0
